(set-info :origin "SVCOMP13 benchmarks generated by Arie Gurfinkel")
(set-info :status unsat)
(set-logic HORN)
(declare-fun cp-rel-entry () Bool)
(declare-fun cp-rel-bb2.i.i16.i.i () Bool)
(declare-fun cp-rel-bb1.i.i (Real Real Real Real) Bool)
(assert |cp-rel-entry|)
(assert (forall ((?A Real) (?B Real) (?C Real) (?D Real) (?E Bool) )(let (($x320916 (and |cp-rel-entry| (<= ?D 0.0) (>= ?C 1.0) (<= ?C 1.0) (>= ?B 1.0) (<= ?B 1.0) (>= ?A 0.0) (<= ?A 0.0) (= ?E true) (>= ?D 0.0))))
(=> $x320916 (|cp-rel-bb1.i.i| ?A ?B ?C ?D))))
)
(assert (forall ((?A Real) (?B Real) (?C Real) (?D Real) (?E Real) (?F Real) (?G Real) (?H Real) (?I Bool) (?J Bool) (?K Bool) (?L Bool) (?M Bool) (?N Bool) (?O Real) (?P Real) (?Q Bool) (?R Bool) (?S Bool) (?T Bool) (?U Bool) (?V Bool) (?W Real) (?X Real) (?Y Bool) (?Z Bool) (?A1 Bool) (?B1 Bool) (?C1 Bool) (?D1 Bool) (?E1 Bool) (?F1 Bool) (?G1 Bool) (?H1 Bool) (?I1 Bool) (?J1 Bool) (?K1 Bool) (?L1 Real) (?M1 Real) (?N1 Real) (?O1 Real) (?P1 Bool) (?Q1 Bool) (?R1 Bool) (?S1 Bool) (?T1 Bool) (?U1 Bool) (?V1 Bool) (?W1 Bool) (?X1 Bool) (?Y1 Bool) (?Z1 Real) (?A2 Bool) (?B2 Bool) (?C2 Bool) (?D2 Real) (?E2 Bool) (?F2 Real) (?G2 Real) (?H2 Bool) (?I2 Real) (?J2 Real) (?K2 Bool) (?L2 Real) (?M2 Bool) (?N2 Bool) (?O2 Bool) (?P2 Bool) (?Q2 Bool) (?R2 Bool) )(let (($x538275 (|cp-rel-bb1.i.i| ?E ?F ?G ?H)))
(let (($x143398 (= ?C2 (and ?R2 ?Q2))))
(let (($x286553 (or (not ?I) (and ?J ?K (not ?L)))))
(let (($x82042 (or (not ?I) ?K)))
(let (($x373748 (not ?M)))
(let (($x412586 (or $x373748 (and ?I ?N (<= ?O ?P) (>= ?O ?P)) (and ?J ?Q ?L (<= ?O ?B) (>= ?O ?B)))))
(let (($x251421 (or $x373748 (and ?N (not ?Q)) (and ?Q (not ?N)))))
(let (($x870299 (or (not ?R) (and ?M ?S (not ?T)))))
(let (($x799288 (or (not ?R) ?S)))
(let (($x846512 (not ?U)))
(let (($x479543 (or $x846512 (and ?R ?V (<= ?W ?X) (>= ?W ?X)) (and ?M ?Y ?T (<= ?W ?A) (>= ?W ?A)))))
(let (($x501976 (or $x846512 (and ?V (not ?Y)) (and ?Y (not ?V)))))
(let (($x629912 (or (not ?Z) (and ?U ?A1 ?B1))))
(let (($x85266 (or (not ?Z) ?A1)))
(let (($x919237 (or (not ?C1) (and ?Z ?D1 ?E1) (and ?U ?F1 (not ?B1)))))
(let (($x570516 (or (not ?C1) (and ?D1 (not ?F1)) (and ?F1 (not ?D1)))))
(let (($x446848 (or (not ?G1) (and ?C1 ?H1 (not ?I1)))))
(let (($x136160 (or (not ?G1) ?H1)))
(let (($x386357 (>= ?N1 ?O)))
(let (($x220115 (<= ?N1 ?O)))
(let (($x51400 (and ?Z ?Q1 (not ?E1) (<= ?L1 0.0) (>= ?L1 0.0) (<= ?M1 0.0) (>= ?M1 0.0) $x220115 $x386357)))
(let (($x61980 (and ?C1 ?P1 ?I1 (<= ?L1 ?D) (>= ?L1 ?D) (<= ?M1 ?C) (>= ?M1 ?C) $x220115 $x386357)))
(let (($x467082 (and ?G1 ?K1 (<= ?L1 ?D) (>= ?L1 ?D) (<= ?M1 ?C) (>= ?M1 ?C) (<= ?N1 ?O1) (>= ?N1 ?O1))))
(let (($x113238 (not ?J1)))
(let (($x346084 (or $x113238 (and ?K1 (not ?P1) (not ?Q1)) (and ?P1 (not ?K1) (not ?Q1)) (and ?Q1 (not ?K1) (not ?P1)))))
(let (($x870670 (or (not ?R1) (and ?J1 ?S1 ?T1))))
(let (($x442942 (or (not ?R1) ?S1)))
(let (($x188958 (or (not ?U1) (and ?R1 ?V1 (not ?W1)))))
(let (($x850487 (or (not ?U1) ?V1)))
(let (($x268213 (or (not ?X1) (and ?U1 ?Y1 (<= ?Z1 ?L1) (>= ?Z1 ?L1)) (and ?R1 ?A2 ?W1 (<= ?Z1 1.0) (>= ?Z1 1.0)) (and ?J1 ?B2 (not ?T1) (<= ?Z1 ?L1) (>= ?Z1 ?L1)))))
(let (($x222179 (or (not ?X1) (and ?Y1 (not ?A2) (not ?B2)) (and ?A2 (not ?Y1) (not ?B2)) (and ?B2 (not ?Y1) (not ?A2)))))
(let (($x159692 (= ?X1 true)))
(let (($x428002 (= ?L (= ?D2 0.0))))
(let (($x345488 (= ?F2 (ite ?E2 1.0 0.0))))
(let (($x741760 (= ?T (= ?G2 0.0))))
(let (($x159601 (= ?X (ite ?H2 1.0 0.0))))
(let (($x89463 (= ?B1 (= ?I2 0.0))))
(let (($x456088 (= ?E1 (= ?J2 0.0))))
(let (($x2982 (= ?K2 (not (<= ?O 0.0)))))
(let (($x606854 (= ?L2 (+ (~ 1.0) ?O))))
(let (($x508277 (= ?O1 (ite ?K2 ?L2 ?O))))
(let (($x235628 (= ?M2 (not (= ?M1 0.0)))))
(let (($x262755 (= ?N2 (= ?L1 0.0))))
(let (($x410818 (= ?T1 (and ?M2 ?N2))))
(let (($x441350 (= ?W1 (not (<= ?N1 1.0)))))
(let (($x124523 (= ?O2 (= ?W 0.0))))
(let (($x63742 (= ?P2 (= ?N1 2.0))))
(let (($x423823 (= ?Q2 (= ?Z1 0.0))))
(let (($x623325 (= ?R2 (and ?P2 ?O2))))
(let (($x583936 (and (|cp-rel-bb1.i.i| ?A ?B ?C ?D) $x623325 $x423823 $x63742 $x124523 $x441350 $x410818 $x262755 $x235628 $x508277 $x606854 $x2982 (= ?I1 (= ?D 0.0)) $x456088 $x89463 $x159601 (= ?H2 (= ?A 0.0)) $x741760 (= ?P (+ ?F2 ?B)) $x345488 (= ?E2 (not (<= 2.0 ?B))) $x428002 (>= ?H ?Z1) (<= ?H ?Z1) (>= ?G ?M1) (<= ?G ?M1) (>= ?F ?N1) (<= ?F ?N1) (>= ?E ?W) (<= ?E ?W) (not (= ?C2 true)) $x159692 $x222179 $x268213 $x850487 $x188958 $x442942 $x870670 $x346084 (or $x113238 $x467082 $x61980 $x51400) $x136160 $x446848 $x570516 $x919237 $x85266 $x629912 $x501976 $x479543 $x799288 $x870299 $x251421 $x412586 $x82042 $x286553 $x143398)))
(=> $x583936 $x538275))))))))))))))))))))))))))))))))))))))))))))))))))))
)
(assert (forall ((?A Real) (?B Real) (?C Real) (?D Real) (?E Bool) (?F Bool) (?G Bool) (?H Bool) (?I Bool) (?J Bool) (?K Real) (?L Real) (?M Bool) (?N Bool) (?O Bool) (?P Bool) (?Q Bool) (?R Bool) (?S Real) (?T Real) (?U Bool) (?V Bool) (?W Bool) (?X Bool) (?Y Bool) (?Z Bool) (?A1 Bool) (?B1 Bool) (?C1 Bool) (?D1 Bool) (?E1 Bool) (?F1 Bool) (?G1 Bool) (?H1 Real) (?I1 Real) (?J1 Real) (?K1 Real) (?L1 Bool) (?M1 Bool) (?N1 Bool) (?O1 Bool) (?P1 Bool) (?Q1 Bool) (?R1 Bool) (?S1 Bool) (?T1 Bool) (?U1 Bool) (?V1 Real) (?W1 Bool) (?X1 Bool) (?Y1 Bool) (?Z1 Real) (?A2 Bool) (?B2 Real) (?C2 Real) (?D2 Bool) (?E2 Real) (?F2 Real) (?G2 Bool) (?H2 Real) (?I2 Bool) (?J2 Bool) (?K2 Bool) (?L2 Bool) (?M2 Bool) (?N2 Bool) )(let (($x143398 (= ?Y1 (and ?N2 ?M2))))
(let (($x286553 (or (not ?E) (and ?F ?G (not ?H)))))
(let (($x82042 (or (not ?E) ?G)))
(let (($x373748 (not ?I)))
(let (($x17654 (or $x373748 (and ?E ?J (<= ?K ?L) (>= ?K ?L)) (and ?F ?M ?H (<= ?K ?B) (>= ?K ?B)))))
(let (($x251421 (or $x373748 (and ?J (not ?M)) (and ?M (not ?J)))))
(let (($x870299 (or (not ?N) (and ?I ?O (not ?P)))))
(let (($x799288 (or (not ?N) ?O)))
(let (($x846512 (not ?Q)))
(let (($x307879 (or $x846512 (and ?N ?R (<= ?S ?T) (>= ?S ?T)) (and ?I ?U ?P (<= ?S ?A) (>= ?S ?A)))))
(let (($x501976 (or $x846512 (and ?R (not ?U)) (and ?U (not ?R)))))
(let (($x629912 (or (not ?V) (and ?Q ?W ?X))))
(let (($x85266 (or (not ?V) ?W)))
(let (($x919237 (or (not ?Y) (and ?V ?Z ?A1) (and ?Q ?B1 (not ?X)))))
(let (($x570516 (or (not ?Y) (and ?Z (not ?B1)) (and ?B1 (not ?Z)))))
(let (($x446848 (or (not ?C1) (and ?Y ?D1 (not ?E1)))))
(let (($x136160 (or (not ?C1) ?D1)))
(let (($x386357 (>= ?J1 ?K)))
(let (($x220115 (<= ?J1 ?K)))
(let (($x51400 (and ?V ?M1 (not ?A1) (<= ?H1 0.0) (>= ?H1 0.0) (<= ?I1 0.0) (>= ?I1 0.0) $x220115 $x386357)))
(let (($x597559 (and ?Y ?L1 ?E1 (<= ?H1 ?D) (>= ?H1 ?D) (<= ?I1 ?C) (>= ?I1 ?C) $x220115 $x386357)))
(let (($x59250 (and ?C1 ?G1 (<= ?H1 ?D) (>= ?H1 ?D) (<= ?I1 ?C) (>= ?I1 ?C) (<= ?J1 ?K1) (>= ?J1 ?K1))))
(let (($x113238 (not ?F1)))
(let (($x346084 (or $x113238 (and ?G1 (not ?L1) (not ?M1)) (and ?L1 (not ?G1) (not ?M1)) (and ?M1 (not ?G1) (not ?L1)))))
(let (($x870670 (or (not ?N1) (and ?F1 ?O1 ?P1))))
(let (($x442942 (or (not ?N1) ?O1)))
(let (($x188958 (or (not ?Q1) (and ?N1 ?R1 (not ?S1)))))
(let (($x850487 (or (not ?Q1) ?R1)))
(let (($x268213 (or (not ?T1) (and ?Q1 ?U1 (<= ?V1 ?H1) (>= ?V1 ?H1)) (and ?N1 ?W1 ?S1 (<= ?V1 1.0) (>= ?V1 1.0)) (and ?F1 ?X1 (not ?P1) (<= ?V1 ?H1) (>= ?V1 ?H1)))))
(let (($x222179 (or (not ?T1) (and ?U1 (not ?W1) (not ?X1)) (and ?W1 (not ?U1) (not ?X1)) (and ?X1 (not ?U1) (not ?W1)))))
(let (($x159692 (= ?T1 true)))
(let (($x66561 (= ?Y1 true)))
(let (($x428002 (= ?H (= ?Z1 0.0))))
(let (($x345488 (= ?B2 (ite ?A2 1.0 0.0))))
(let (($x741760 (= ?P (= ?C2 0.0))))
(let (($x159601 (= ?T (ite ?D2 1.0 0.0))))
(let (($x89463 (= ?X (= ?E2 0.0))))
(let (($x456088 (= ?A1 (= ?F2 0.0))))
(let (($x2982 (= ?G2 (not (<= ?K 0.0)))))
(let (($x606854 (= ?H2 (+ (~ 1.0) ?K))))
(let (($x508277 (= ?K1 (ite ?G2 ?H2 ?K))))
(let (($x235628 (= ?I2 (not (= ?I1 0.0)))))
(let (($x262755 (= ?J2 (= ?H1 0.0))))
(let (($x410818 (= ?P1 (and ?I2 ?J2))))
(let (($x441350 (= ?S1 (not (<= ?J1 1.0)))))
(let (($x124523 (= ?K2 (= ?S 0.0))))
(let (($x63742 (= ?L2 (= ?J1 2.0))))
(let (($x423823 (= ?M2 (= ?V1 0.0))))
(let (($x623325 (= ?N2 (and ?L2 ?K2))))
(let (($x538275 (|cp-rel-bb1.i.i| ?A ?B ?C ?D)))
(let (($x567601 (and $x538275 $x623325 $x423823 $x63742 $x124523 $x441350 $x410818 $x262755 $x235628 $x508277 $x606854 $x2982 (= ?E1 (= ?D 0.0)) $x456088 $x89463 $x159601 (= ?D2 (= ?A 0.0)) $x741760 (= ?L (+ ?B2 ?B)) $x345488 (= ?A2 (not (<= 2.0 ?B))) $x428002 $x66561 $x159692 $x222179 $x268213 $x850487 $x188958 $x442942 $x870670 $x346084 (or $x113238 $x59250 $x597559 $x51400) $x136160 $x446848 $x570516 $x919237 $x85266 $x629912 $x501976 $x307879 $x799288 $x870299 $x251421 $x17654 $x82042 $x286553 $x143398)))
(=> $x567601 |cp-rel-bb2.i.i16.i.i|)))))))))))))))))))))))))))))))))))))))))))))))))))))
)
(assert (not cp-rel-bb2.i.i16.i.i))
(check-sat)
